Maximize
 0
Subject To
 epc_0!1: +21.05951322522887 y_1!1_2!1 -95.77268399668685 y_1!2_2!1 -62.677693299716154 y_1!3_2!1 +79.5644062791522 y_1!4_2!1 +84.50905746212263 y_1!5_2!1 +22.10876455613571 y_1!6_2!1 +61.48971764708159 y_1!1_2!2 -65.70776482635432 y_1!2_2!2 -30.146079565965508 y_1!3_2!2 -67.26976921781565 y_1!4_2!2 +95.55653797824647 y_1!5_2!2 -55.30871078779547 y_1!6_2!2 +94.19956606430353 y_1!1_2!3 +30.422835894280837 y_1!2_2!3 -67.35794815241967 y_1!3_2!3 +26.309940393857076 y_1!4_2!3 +88.26247137873989 y_1!5_2!3 +5.601755915510239 y_1!6_2!3 -87.9191310268285 y_1!1_2!4 -88.55203236151668 y_1!2_2!4 +23.08082134827056 y_1!3_2!4 +31.245596177556905 y_1!4_2!4 -81.54583703235605 y_1!5_2!4 -48.1958536380716 y_1!6_2!4 +58.1241340015556 y_1!1_2!5 +61.595002619814835 y_1!2_2!5 -88.21448343724848 y_1!3_2!5 -50.64127860545442 y_1!4_2!5 +42.83308356091089 y_1!5_2!5 -12.398231856881026 y_1!6_2!5 +45.93250029315098 y_1!1_2!6 -14.978054126377359 y_1!2_2!6 +53.62068877203609 y_1!3_2!6 +43.659678115840535 y_1!4_2!6 -17.794661553103722 y_1!5_2!6 +64.58004233867234 y_1!6_2!6 + lambda_0!1 - mu_0 = 0
 epc_0!2: +49.07203903776781 y_1!1_2!1 -75.25844512508189 y_1!2_2!1 -15.584110973778365 y_1!3_2!1 +64.65255060421572 y_1!4_2!1 +53.76611625550913 y_1!5_2!1 +49.58218234267673 y_1!6_2!1 +31.81559483765514 y_1!1_2!2 -9.692136311064075 y_1!2_2!2 +70.65990819828934 y_1!3_2!2 -30.402275522437037 y_1!4_2!2 -34.84403513332775 y_1!5_2!2 -88.97223048118872 y_1!6_2!2 +97.90427868605477 y_1!1_2!3 -96.8663486461316 y_1!2_2!3 +57.51323730075063 y_1!3_2!3 +76.55952981864337 y_1!4_2!3 -16.62575746628532 y_1!5_2!3 -80.43842936307868 y_1!6_2!3 +55.996679968578974 y_1!1_2!4 -88.83090262804343 y_1!2_2!4 +24.022189545236202 y_1!3_2!4 -48.498262706148985 y_1!4_2!4 +37.357898348482166 y_1!5_2!4 +75.18608312768225 y_1!6_2!4 -59.56138810836195 y_1!1_2!5 -53.48914459248824 y_1!2_2!5 -29.551681118058795 y_1!3_2!5 +53.904736970690664 y_1!4_2!5 -97.59838144816375 y_1!5_2!5 -53.483522434533384 y_1!6_2!5 +86.30603776637398 y_1!1_2!6 +87.12207365701508 y_1!2_2!6 -68.80353538406037 y_1!3_2!6 -66.7207813659767 y_1!4_2!6 +6.653327474296759 y_1!5_2!6 -97.40550628337692 y_1!6_2!6 + lambda_0!2 - mu_0 = 0
 epc_0!3: +25.581112226546352 y_1!1_2!1 -12.986353906094067 y_1!2_2!1 +50.98899586536916 y_1!3_2!1 +33.299758104909785 y_1!4_2!1 -15.221866467200257 y_1!5_2!1 -41.24235452062055 y_1!6_2!1 +11.254417163613923 y_1!1_2!2 +83.99247907542488 y_1!2_2!2 +36.10257356151371 y_1!3_2!2 +77.52568353752233 y_1!4_2!2 -4.266432949348271 y_1!5_2!2 +90.34689514621806 y_1!6_2!2 -26.28012259559152 y_1!1_2!3 +48.826413989851744 y_1!2_2!3 +31.20959052102006 y_1!3_2!3 +84.85163979555347 y_1!4_2!3 +41.217876694996136 y_1!5_2!3 -31.81612495855626 y_1!6_2!3 +55.95247896020331 y_1!1_2!4 +48.41460980952638 y_1!2_2!4 +31.837388844650803 y_1!3_2!4 +12.533262291975333 y_1!4_2!4 +88.65693841550632 y_1!5_2!4 -80.99883890132972 y_1!6_2!4 +87.25017077439205 y_1!1_2!5 +80.35935033325998 y_1!2_2!5 -25.556742398555343 y_1!3_2!5 +33.78059667034822 y_1!4_2!5 +64.4155155710794 y_1!5_2!5 +62.60886282410971 y_1!6_2!5 +2.452403346117677 y_1!1_2!6 -88.18779033261242 y_1!2_2!6 -9.95333498728452 y_1!3_2!6 +76.40801111214424 y_1!4_2!6 -60.43339230712521 y_1!5_2!6 -65.69787573315028 y_1!6_2!6 + lambda_0!3 - mu_0 = 0
 epc_0!4: -15.545982967729714 y_1!1_2!1 +99.01137191503707 y_1!2_2!1 -55.36387899121655 y_1!3_2!1 +84.55145693914977 y_1!4_2!1 -19.23011384824123 y_1!5_2!1 +20.465467024386413 y_1!6_2!1 -19.814816520153926 y_1!1_2!2 -94.35821836060325 y_1!2_2!2 -29.79266691779901 y_1!3_2!2 -14.872681588838589 y_1!4_2!2 +9.719957024233366 y_1!5_2!2 -80.63997068272617 y_1!6_2!2 +79.94065630078268 y_1!1_2!3 +24.95609781178871 y_1!2_2!3 -11.326530213672669 y_1!3_2!3 +97.50726716885586 y_1!4_2!3 +21.247270371933496 y_1!5_2!3 -76.08615713532944 y_1!6_2!3 -3.455276869395618 y_1!1_2!4 +95.09937574259067 y_1!2_2!4 -82.02838190670126 y_1!3_2!4 -60.47673610692077 y_1!4_2!4 -53.08829268079538 y_1!5_2!4 -86.27216850549053 y_1!6_2!4 -29.84239845575101 y_1!1_2!5 +8.226807599334634 y_1!2_2!5 -16.996526935407402 y_1!3_2!5 +55.362376080135846 y_1!4_2!5 +66.1306501267255 y_1!5_2!5 +60.32827848555357 y_1!6_2!5 +97.1125756050821 y_1!1_2!6 +17.37687208079413 y_1!2_2!6 -93.6892052272126 y_1!3_2!6 -79.70181156890237 y_1!4_2!6 -37.87093137486106 y_1!5_2!6 +29.579496595464008 y_1!6_2!6 + lambda_0!4 - mu_0 = 0
 epc_0!5: +98.79241828627781 y_1!1_2!1 -24.43917842049224 y_1!2_2!1 +5.047023723021638 y_1!3_2!1 -69.92581144548575 y_1!4_2!1 +15.398362526327404 y_1!5_2!1 -32.59554035021867 y_1!6_2!1 -66.70487992976489 y_1!1_2!2 +35.28247469837689 y_1!2_2!2 -69.53195399859109 y_1!3_2!2 -24.395912608396813 y_1!4_2!2 -67.9724224406252 y_1!5_2!2 -12.870451925350082 y_1!6_2!2 +65.27477700914687 y_1!1_2!3 -73.24732712057252 y_1!2_2!3 -65.12190471778423 y_1!3_2!3 -61.34734536110571 y_1!4_2!3 +54.451395866827994 y_1!5_2!3 -78.85104095356297 y_1!6_2!3 +88.20142850609514 y_1!1_2!4 +17.837747790702878 y_1!2_2!4 +36.19583831665841 y_1!3_2!4 +52.59596663520986 y_1!4_2!4 -67.0645638394899 y_1!5_2!4 +17.297125341632096 y_1!6_2!4 +21.297519981087973 y_1!1_2!5 -33.409440928983884 y_1!2_2!5 -87.45042336193909 y_1!3_2!5 -24.14622076749751 y_1!4_2!5 -51.98425035563557 y_1!5_2!5 -23.56460729582888 y_1!6_2!5 +39.11108241017271 y_1!1_2!6 +96.56374456612085 y_1!2_2!6 +79.84147226873756 y_1!3_2!6 +6.80447528503349 y_1!4_2!6 -0.49994337598356253 y_1!5_2!6 +95.7076965235157 y_1!6_2!6 + lambda_0!5 - mu_0 = 0
 epc_0!6: -64.83098742083453 y_1!1_2!1 -12.160234829490463 y_1!2_2!1 -53.70140592924844 y_1!3_2!1 -18.16249168140733 y_1!4_2!1 +64.54561582466641 y_1!5_2!1 -66.39437866382141 y_1!6_2!1 +13.075047769732521 y_1!1_2!2 -13.367174313435129 y_1!2_2!2 -31.142595075512332 y_1!3_2!2 -13.639981433276091 y_1!4_2!2 -90.27805272722946 y_1!5_2!2 -65.0019493981382 y_1!6_2!2 -92.00476214761449 y_1!1_2!3 +0.18482015528189777 y_1!2_2!3 -5.343194490845178 y_1!3_2!3 +14.792419035938195 y_1!4_2!3 +46.26418863062409 y_1!5_2!3 +61.64052370033852 y_1!6_2!3 +81.4698260097731 y_1!1_2!4 -0.43262933416970384 y_1!2_2!4 -5.227337857738306 y_1!3_2!4 +56.255080825227566 y_1!4_2!4 -97.78245560034173 y_1!5_2!4 +88.40135764337583 y_1!6_2!4 -72.92408902289118 y_1!1_2!5 -8.725058914958694 y_1!2_2!5 +13.111495975422073 y_1!3_2!5 +27.387443954193998 y_1!4_2!5 +18.855160131743446 y_1!5_2!5 -62.04042252339037 y_1!6_2!5 -81.61684122614241 y_1!1_2!6 +1.0550261703003514 y_1!2_2!6 +12.413659377851843 y_1!3_2!6 -93.29934067493792 y_1!4_2!6 +38.10639248072789 y_1!5_2!6 +32.00684621274894 y_1!6_2!6 + lambda_0!6 - mu_0 = 0
 dc_0: x_0!1 + x_0!2 + x_0!3 + x_0!4 + x_0!5 + x_0!6 = 1
 bc_0!1: lambda_0!1 +299.8352181602369 x_0!1 <= 299.8352181602369
 bc_0!2: lambda_0!2 +299.8352181602369 x_0!2 <= 299.8352181602369
 bc_0!3: lambda_0!3 +299.8352181602369 x_0!3 <= 299.8352181602369
 bc_0!4: lambda_0!4 +299.8352181602369 x_0!4 <= 299.8352181602369
 bc_0!5: lambda_0!5 +299.8352181602369 x_0!5 <= 299.8352181602369
 bc_0!6: lambda_0!6 +299.8352181602369 x_0!6 <= 299.8352181602369
 sum_0!1: y_1!1_2!1 - x_1!1 - x_2!1 >= -1
 idk_0!1!1: y_1!1_2!1 - x_1!1 <= 0
 idk_0!1!2: y_1!1_2!1 - x_2!1 <= 0
 sum_0!2: y_1!2_2!1 - x_1!2 - x_2!1 >= -1
 idk_0!2!1: y_1!2_2!1 - x_1!2 <= 0
 idk_0!2!2: y_1!2_2!1 - x_2!1 <= 0
 sum_0!3: y_1!3_2!1 - x_1!3 - x_2!1 >= -1
 idk_0!3!1: y_1!3_2!1 - x_1!3 <= 0
 idk_0!3!2: y_1!3_2!1 - x_2!1 <= 0
 sum_0!4: y_1!4_2!1 - x_1!4 - x_2!1 >= -1
 idk_0!4!1: y_1!4_2!1 - x_1!4 <= 0
 idk_0!4!2: y_1!4_2!1 - x_2!1 <= 0
 sum_0!5: y_1!5_2!1 - x_1!5 - x_2!1 >= -1
 idk_0!5!1: y_1!5_2!1 - x_1!5 <= 0
 idk_0!5!2: y_1!5_2!1 - x_2!1 <= 0
 sum_0!6: y_1!6_2!1 - x_1!6 - x_2!1 >= -1
 idk_0!6!1: y_1!6_2!1 - x_1!6 <= 0
 idk_0!6!2: y_1!6_2!1 - x_2!1 <= 0
 sum_0!7: y_1!1_2!2 - x_1!1 - x_2!2 >= -1
 idk_0!7!1: y_1!1_2!2 - x_1!1 <= 0
 idk_0!7!2: y_1!1_2!2 - x_2!2 <= 0
 sum_0!8: y_1!2_2!2 - x_1!2 - x_2!2 >= -1
 idk_0!8!1: y_1!2_2!2 - x_1!2 <= 0
 idk_0!8!2: y_1!2_2!2 - x_2!2 <= 0
 sum_0!9: y_1!3_2!2 - x_1!3 - x_2!2 >= -1
 idk_0!9!1: y_1!3_2!2 - x_1!3 <= 0
 idk_0!9!2: y_1!3_2!2 - x_2!2 <= 0
 sum_0!10: y_1!4_2!2 - x_1!4 - x_2!2 >= -1
 idk_0!10!1: y_1!4_2!2 - x_1!4 <= 0
 idk_0!10!2: y_1!4_2!2 - x_2!2 <= 0
 sum_0!11: y_1!5_2!2 - x_1!5 - x_2!2 >= -1
 idk_0!11!1: y_1!5_2!2 - x_1!5 <= 0
 idk_0!11!2: y_1!5_2!2 - x_2!2 <= 0
 sum_0!12: y_1!6_2!2 - x_1!6 - x_2!2 >= -1
 idk_0!12!1: y_1!6_2!2 - x_1!6 <= 0
 idk_0!12!2: y_1!6_2!2 - x_2!2 <= 0
 sum_0!13: y_1!1_2!3 - x_1!1 - x_2!3 >= -1
 idk_0!13!1: y_1!1_2!3 - x_1!1 <= 0
 idk_0!13!2: y_1!1_2!3 - x_2!3 <= 0
 sum_0!14: y_1!2_2!3 - x_1!2 - x_2!3 >= -1
 idk_0!14!1: y_1!2_2!3 - x_1!2 <= 0
 idk_0!14!2: y_1!2_2!3 - x_2!3 <= 0
 sum_0!15: y_1!3_2!3 - x_1!3 - x_2!3 >= -1
 idk_0!15!1: y_1!3_2!3 - x_1!3 <= 0
 idk_0!15!2: y_1!3_2!3 - x_2!3 <= 0
 sum_0!16: y_1!4_2!3 - x_1!4 - x_2!3 >= -1
 idk_0!16!1: y_1!4_2!3 - x_1!4 <= 0
 idk_0!16!2: y_1!4_2!3 - x_2!3 <= 0
 sum_0!17: y_1!5_2!3 - x_1!5 - x_2!3 >= -1
 idk_0!17!1: y_1!5_2!3 - x_1!5 <= 0
 idk_0!17!2: y_1!5_2!3 - x_2!3 <= 0
 sum_0!18: y_1!6_2!3 - x_1!6 - x_2!3 >= -1
 idk_0!18!1: y_1!6_2!3 - x_1!6 <= 0
 idk_0!18!2: y_1!6_2!3 - x_2!3 <= 0
 sum_0!19: y_1!1_2!4 - x_1!1 - x_2!4 >= -1
 idk_0!19!1: y_1!1_2!4 - x_1!1 <= 0
 idk_0!19!2: y_1!1_2!4 - x_2!4 <= 0
 sum_0!20: y_1!2_2!4 - x_1!2 - x_2!4 >= -1
 idk_0!20!1: y_1!2_2!4 - x_1!2 <= 0
 idk_0!20!2: y_1!2_2!4 - x_2!4 <= 0
 sum_0!21: y_1!3_2!4 - x_1!3 - x_2!4 >= -1
 idk_0!21!1: y_1!3_2!4 - x_1!3 <= 0
 idk_0!21!2: y_1!3_2!4 - x_2!4 <= 0
 sum_0!22: y_1!4_2!4 - x_1!4 - x_2!4 >= -1
 idk_0!22!1: y_1!4_2!4 - x_1!4 <= 0
 idk_0!22!2: y_1!4_2!4 - x_2!4 <= 0
 sum_0!23: y_1!5_2!4 - x_1!5 - x_2!4 >= -1
 idk_0!23!1: y_1!5_2!4 - x_1!5 <= 0
 idk_0!23!2: y_1!5_2!4 - x_2!4 <= 0
 sum_0!24: y_1!6_2!4 - x_1!6 - x_2!4 >= -1
 idk_0!24!1: y_1!6_2!4 - x_1!6 <= 0
 idk_0!24!2: y_1!6_2!4 - x_2!4 <= 0
 sum_0!25: y_1!1_2!5 - x_1!1 - x_2!5 >= -1
 idk_0!25!1: y_1!1_2!5 - x_1!1 <= 0
 idk_0!25!2: y_1!1_2!5 - x_2!5 <= 0
 sum_0!26: y_1!2_2!5 - x_1!2 - x_2!5 >= -1
 idk_0!26!1: y_1!2_2!5 - x_1!2 <= 0
 idk_0!26!2: y_1!2_2!5 - x_2!5 <= 0
 sum_0!27: y_1!3_2!5 - x_1!3 - x_2!5 >= -1
 idk_0!27!1: y_1!3_2!5 - x_1!3 <= 0
 idk_0!27!2: y_1!3_2!5 - x_2!5 <= 0
 sum_0!28: y_1!4_2!5 - x_1!4 - x_2!5 >= -1
 idk_0!28!1: y_1!4_2!5 - x_1!4 <= 0
 idk_0!28!2: y_1!4_2!5 - x_2!5 <= 0
 sum_0!29: y_1!5_2!5 - x_1!5 - x_2!5 >= -1
 idk_0!29!1: y_1!5_2!5 - x_1!5 <= 0
 idk_0!29!2: y_1!5_2!5 - x_2!5 <= 0
 sum_0!30: y_1!6_2!5 - x_1!6 - x_2!5 >= -1
 idk_0!30!1: y_1!6_2!5 - x_1!6 <= 0
 idk_0!30!2: y_1!6_2!5 - x_2!5 <= 0
 sum_0!31: y_1!1_2!6 - x_1!1 - x_2!6 >= -1
 idk_0!31!1: y_1!1_2!6 - x_1!1 <= 0
 idk_0!31!2: y_1!1_2!6 - x_2!6 <= 0
 sum_0!32: y_1!2_2!6 - x_1!2 - x_2!6 >= -1
 idk_0!32!1: y_1!2_2!6 - x_1!2 <= 0
 idk_0!32!2: y_1!2_2!6 - x_2!6 <= 0
 sum_0!33: y_1!3_2!6 - x_1!3 - x_2!6 >= -1
 idk_0!33!1: y_1!3_2!6 - x_1!3 <= 0
 idk_0!33!2: y_1!3_2!6 - x_2!6 <= 0
 sum_0!34: y_1!4_2!6 - x_1!4 - x_2!6 >= -1
 idk_0!34!1: y_1!4_2!6 - x_1!4 <= 0
 idk_0!34!2: y_1!4_2!6 - x_2!6 <= 0
 sum_0!35: y_1!5_2!6 - x_1!5 - x_2!6 >= -1
 idk_0!35!1: y_1!5_2!6 - x_1!5 <= 0
 idk_0!35!2: y_1!5_2!6 - x_2!6 <= 0
 sum_0!36: y_1!6_2!6 - x_1!6 - x_2!6 >= -1
 idk_0!36!1: y_1!6_2!6 - x_1!6 <= 0
 idk_0!36!2: y_1!6_2!6 - x_2!6 <= 0
 epc_1!1: +42.45359703157328 y_0!1_2!1 -39.742142379879766 y_0!2_2!1 -28.103991745582604 y_0!3_2!1 -35.86666905238694 y_0!4_2!1 +62.05635640740576 y_0!5_2!1 -38.12881107479746 y_0!6_2!1 +42.29119895102832 y_0!1_2!2 -31.57760061401393 y_0!2_2!2 +74.8360772523589 y_0!3_2!2 +34.81212410454589 y_0!4_2!2 -93.15635166234837 y_0!5_2!2 -8.577718117269129 y_0!6_2!2 -36.696714854385924 y_0!1_2!3 +69.18510368795376 y_0!2_2!3 -60.51734625814538 y_0!3_2!3 +67.68784995183483 y_0!4_2!3 +83.78157808940983 y_0!5_2!3 +45.34098887665405 y_0!6_2!3 +8.344072189032218 y_0!1_2!4 +39.27158544558381 y_0!2_2!4 +8.143694130955282 y_0!3_2!4 -33.36875843894656 y_0!4_2!4 -74.57100931760957 y_0!5_2!4 -90.73489406728537 y_0!6_2!4 -58.59949826680197 y_0!1_2!5 +75.51503727456318 y_0!2_2!5 +28.149347660016332 y_0!3_2!5 +5.712349898450682 y_0!4_2!5 +54.99801818365569 y_0!5_2!5 +23.201719819281095 y_0!6_2!5 -30.40103235901003 y_0!1_2!6 +96.77327540342966 y_0!2_2!6 +81.68214887070516 y_0!3_2!6 +92.64262578893104 y_0!4_2!6 -88.51457066755194 y_0!5_2!6 +96.02532811673547 y_0!6_2!6 + lambda_1!1 - mu_1 = 0
 epc_1!2: +59.88215298232379 y_0!1_2!1 +32.81328941511646 y_0!2_2!1 +91.37575788298125 y_0!3_2!1 +58.41310667782818 y_0!4_2!1 -46.83408825425388 y_0!5_2!1 +10.74515407476244 y_0!6_2!1 +34.57628715830975 y_0!1_2!2 +5.401784265057302 y_0!2_2!2 -79.56197551819066 y_0!3_2!2 -28.86827276422561 y_0!4_2!2 -79.2946169344361 y_0!5_2!2 +21.950334771199252 y_0!6_2!2 +83.17296839336882 y_0!1_2!3 -0.8592425572829825 y_0!2_2!3 -96.11418876945915 y_0!3_2!3 +41.872815750325685 y_0!4_2!3 +15.801514138409445 y_0!5_2!3 +3.7434106400782383 y_0!6_2!3 -56.53574206472671 y_0!1_2!4 -86.04191928568024 y_0!2_2!4 -35.96185905198486 y_0!3_2!4 +99.86333666685434 y_0!4_2!4 -81.46994354443176 y_0!5_2!4 -27.257712723606716 y_0!6_2!4 -92.90797093432946 y_0!1_2!5 -67.43007302403119 y_0!2_2!5 +20.068100729043124 y_0!3_2!5 -99.97188149338254 y_0!4_2!5 -64.62057806351653 y_0!5_2!5 -7.626358742784973 y_0!6_2!5 -39.86115146632616 y_0!1_2!6 -83.19882774037721 y_0!2_2!6 +25.564160332944198 y_0!3_2!6 +52.431077873570985 y_0!4_2!6 +21.56784869705632 y_0!5_2!6 -7.187425004643799 y_0!6_2!6 + lambda_1!2 - mu_1 = 0
 epc_1!3: -67.53482531986512 y_0!1_2!1 -86.51394186084751 y_0!2_2!1 -65.9866445012006 y_0!3_2!1 +66.4755508343296 y_0!4_2!1 +87.09016408985823 y_0!5_2!1 -53.604436763088636 y_0!6_2!1 +33.66172695912567 y_0!1_2!2 -15.906703711492625 y_0!2_2!2 +69.44189902871926 y_0!3_2!2 +70.63634417169678 y_0!4_2!2 +8.54388628403467 y_0!5_2!2 +86.48826062518145 y_0!6_2!2 -29.709851117752663 y_0!1_2!3 +90.08883637797643 y_0!2_2!3 +86.89632853079164 y_0!3_2!3 -20.146580907271613 y_0!4_2!3 +48.132911021873724 y_0!5_2!3 -74.60015576553478 y_0!6_2!3 -52.61053722549307 y_0!1_2!4 -33.160751265667884 y_0!2_2!4 +52.999844647029164 y_0!3_2!4 -82.22851121406205 y_0!4_2!4 -65.02289052818563 y_0!5_2!4 +74.08253271411954 y_0!6_2!4 -10.013635785074257 y_0!1_2!5 -10.46443801142945 y_0!2_2!5 +4.4679985845952785 y_0!3_2!5 -73.87518015125974 y_0!4_2!5 +54.94854705833967 y_0!5_2!5 +50.8516647453672 y_0!6_2!5 +45.399807254258974 y_0!1_2!6 +38.88498940836877 y_0!2_2!6 +90.50050009146935 y_0!3_2!6 +27.357434273335073 y_0!4_2!6 +71.79030885852325 y_0!5_2!6 -7.6693903386829305 y_0!6_2!6 + lambda_1!3 - mu_1 = 0
 epc_1!4: -24.018599339410486 y_0!1_2!1 -38.189123880377494 y_0!2_2!1 -27.340224109915184 y_0!3_2!1 +25.990033485768535 y_0!4_2!1 -75.47339906485884 y_0!5_2!1 +0.1410692889311349 y_0!6_2!1 -26.55184924410659 y_0!1_2!2 -79.0909377321406 y_0!2_2!2 -54.88996633280341 y_0!3_2!2 +35.56609479196112 y_0!4_2!2 +55.63992673721029 y_0!5_2!2 +17.10917185122247 y_0!6_2!2 -9.161717347616886 y_0!1_2!3 -52.35467014503965 y_0!2_2!3 -56.142615425925804 y_0!3_2!3 +24.19835445707379 y_0!4_2!3 +6.35090586356408 y_0!5_2!3 -35.826367514466526 y_0!6_2!3 -42.60513087861866 y_0!1_2!4 -20.179541125355428 y_0!2_2!4 +69.74416055334063 y_0!3_2!4 +37.10890539592128 y_0!4_2!4 +87.50586985482536 y_0!5_2!4 +26.996971409909776 y_0!6_2!4 -99.54824422486807 y_0!1_2!5 +46.95254716964456 y_0!2_2!5 +52.653532499838036 y_0!3_2!5 -17.91949468499132 y_0!4_2!5 -31.868712620659096 y_0!5_2!5 -87.97171328357656 y_0!6_2!5 +32.381217213559665 y_0!1_2!6 +91.7093913781832 y_0!2_2!6 -33.978488775963214 y_0!3_2!6 +51.10266239457894 y_0!4_2!6 +36.30129196532749 y_0!5_2!6 +8.6996643480431 y_0!6_2!6 + lambda_1!4 - mu_1 = 0
 epc_1!5: +70.862196916427 y_0!1_2!1 -3.101679113261355 y_0!2_2!1 -78.46646000761447 y_0!3_2!1 -27.595489546456193 y_0!4_2!1 -42.73477406362609 y_0!5_2!1 -12.15864944371306 y_0!6_2!1 -42.98318169150852 y_0!1_2!2 +16.34144668621971 y_0!2_2!2 +64.32662853766274 y_0!3_2!2 +13.354509235753937 y_0!4_2!2 -3.7148474883004496 y_0!5_2!2 -39.06953292763071 y_0!6_2!2 +34.328855860158995 y_0!1_2!3 +33.13298469820799 y_0!2_2!3 -65.07315233929963 y_0!3_2!3 +25.95734180562863 y_0!4_2!3 -77.24620324384986 y_0!5_2!3 +34.59518015146347 y_0!6_2!3 -51.70218488475926 y_0!1_2!4 -70.89986812630062 y_0!2_2!4 -5.711764684053861 y_0!3_2!4 +45.24864111632519 y_0!4_2!4 -76.0489844649656 y_0!5_2!4 -31.512806295405824 y_0!6_2!4 +97.1155348925501 y_0!1_2!5 -31.883184985089045 y_0!2_2!5 +4.8178140596473185 y_0!3_2!5 +41.4136246730738 y_0!4_2!5 -6.602793959688853 y_0!5_2!5 -74.15802988393719 y_0!6_2!5 -46.592033148464964 y_0!1_2!6 +19.09427932543906 y_0!2_2!6 +18.159812512651612 y_0!3_2!6 +39.26977759223473 y_0!4_2!6 -68.33062926859608 y_0!5_2!6 +82.40244319291793 y_0!6_2!6 + lambda_1!5 - mu_1 = 0
 epc_1!6: -86.47282638682661 y_0!1_2!1 +9.8433388016727 y_0!2_2!1 -64.66254305226494 y_0!3_2!1 +25.32730174601187 y_0!4_2!1 +67.9038541975205 y_0!5_2!1 -39.293980033106955 y_0!6_2!1 +65.579071104494 y_0!1_2!2 -92.08980525408967 y_0!2_2!2 +21.09536475478255 y_0!3_2!2 +90.28115472355964 y_0!4_2!2 -87.9574983654952 y_0!5_2!2 +10.020558944484819 y_0!6_2!2 -81.02898760808401 y_0!1_2!3 +81.12591169579844 y_0!2_2!3 +54.6228323203961 y_0!3_2!3 +3.3682807523581317 y_0!4_2!3 -57.489247580244786 y_0!5_2!3 -81.32589974457557 y_0!6_2!3 -76.34182395676352 y_0!1_2!4 -75.35920562507582 y_0!2_2!4 -16.180264290184468 y_0!3_2!4 -13.028083533652477 y_0!4_2!4 -38.57694678504562 y_0!5_2!4 -27.72666252609737 y_0!6_2!4 -19.332119407222976 y_0!1_2!5 +93.77165044030667 y_0!2_2!5 -43.74932497508463 y_0!3_2!5 -91.70767858089579 y_0!4_2!5 +41.91466038872906 y_0!5_2!5 +91.88014143821724 y_0!6_2!5 -47.81983254338791 y_0!1_2!6 +0.6132355526842161 y_0!2_2!6 +47.637640515253 y_0!3_2!6 +21.487546987089928 y_0!4_2!6 -82.96903428582712 y_0!5_2!6 +99.66466495822539 y_0!6_2!6 + lambda_1!6 - mu_1 = 0
 dc_1: x_1!1 + x_1!2 + x_1!3 + x_1!4 + x_1!5 + x_1!6 = 1
 bc_1!1: lambda_1!1 +299.8352181602369 x_1!1 <= 299.8352181602369
 bc_1!2: lambda_1!2 +299.8352181602369 x_1!2 <= 299.8352181602369
 bc_1!3: lambda_1!3 +299.8352181602369 x_1!3 <= 299.8352181602369
 bc_1!4: lambda_1!4 +299.8352181602369 x_1!4 <= 299.8352181602369
 bc_1!5: lambda_1!5 +299.8352181602369 x_1!5 <= 299.8352181602369
 bc_1!6: lambda_1!6 +299.8352181602369 x_1!6 <= 299.8352181602369
 sum_1!1: y_0!1_2!1 - x_0!1 - x_2!1 >= -1
 idk_1!1!0: y_0!1_2!1 - x_0!1 <= 0
 idk_1!1!2: y_0!1_2!1 - x_2!1 <= 0
 sum_1!2: y_0!2_2!1 - x_0!2 - x_2!1 >= -1
 idk_1!2!0: y_0!2_2!1 - x_0!2 <= 0
 idk_1!2!2: y_0!2_2!1 - x_2!1 <= 0
 sum_1!3: y_0!3_2!1 - x_0!3 - x_2!1 >= -1
 idk_1!3!0: y_0!3_2!1 - x_0!3 <= 0
 idk_1!3!2: y_0!3_2!1 - x_2!1 <= 0
 sum_1!4: y_0!4_2!1 - x_0!4 - x_2!1 >= -1
 idk_1!4!0: y_0!4_2!1 - x_0!4 <= 0
 idk_1!4!2: y_0!4_2!1 - x_2!1 <= 0
 sum_1!5: y_0!5_2!1 - x_0!5 - x_2!1 >= -1
 idk_1!5!0: y_0!5_2!1 - x_0!5 <= 0
 idk_1!5!2: y_0!5_2!1 - x_2!1 <= 0
 sum_1!6: y_0!6_2!1 - x_0!6 - x_2!1 >= -1
 idk_1!6!0: y_0!6_2!1 - x_0!6 <= 0
 idk_1!6!2: y_0!6_2!1 - x_2!1 <= 0
 sum_1!7: y_0!1_2!2 - x_0!1 - x_2!2 >= -1
 idk_1!7!0: y_0!1_2!2 - x_0!1 <= 0
 idk_1!7!2: y_0!1_2!2 - x_2!2 <= 0
 sum_1!8: y_0!2_2!2 - x_0!2 - x_2!2 >= -1
 idk_1!8!0: y_0!2_2!2 - x_0!2 <= 0
 idk_1!8!2: y_0!2_2!2 - x_2!2 <= 0
 sum_1!9: y_0!3_2!2 - x_0!3 - x_2!2 >= -1
 idk_1!9!0: y_0!3_2!2 - x_0!3 <= 0
 idk_1!9!2: y_0!3_2!2 - x_2!2 <= 0
 sum_1!10: y_0!4_2!2 - x_0!4 - x_2!2 >= -1
 idk_1!10!0: y_0!4_2!2 - x_0!4 <= 0
 idk_1!10!2: y_0!4_2!2 - x_2!2 <= 0
 sum_1!11: y_0!5_2!2 - x_0!5 - x_2!2 >= -1
 idk_1!11!0: y_0!5_2!2 - x_0!5 <= 0
 idk_1!11!2: y_0!5_2!2 - x_2!2 <= 0
 sum_1!12: y_0!6_2!2 - x_0!6 - x_2!2 >= -1
 idk_1!12!0: y_0!6_2!2 - x_0!6 <= 0
 idk_1!12!2: y_0!6_2!2 - x_2!2 <= 0
 sum_1!13: y_0!1_2!3 - x_0!1 - x_2!3 >= -1
 idk_1!13!0: y_0!1_2!3 - x_0!1 <= 0
 idk_1!13!2: y_0!1_2!3 - x_2!3 <= 0
 sum_1!14: y_0!2_2!3 - x_0!2 - x_2!3 >= -1
 idk_1!14!0: y_0!2_2!3 - x_0!2 <= 0
 idk_1!14!2: y_0!2_2!3 - x_2!3 <= 0
 sum_1!15: y_0!3_2!3 - x_0!3 - x_2!3 >= -1
 idk_1!15!0: y_0!3_2!3 - x_0!3 <= 0
 idk_1!15!2: y_0!3_2!3 - x_2!3 <= 0
 sum_1!16: y_0!4_2!3 - x_0!4 - x_2!3 >= -1
 idk_1!16!0: y_0!4_2!3 - x_0!4 <= 0
 idk_1!16!2: y_0!4_2!3 - x_2!3 <= 0
 sum_1!17: y_0!5_2!3 - x_0!5 - x_2!3 >= -1
 idk_1!17!0: y_0!5_2!3 - x_0!5 <= 0
 idk_1!17!2: y_0!5_2!3 - x_2!3 <= 0
 sum_1!18: y_0!6_2!3 - x_0!6 - x_2!3 >= -1
 idk_1!18!0: y_0!6_2!3 - x_0!6 <= 0
 idk_1!18!2: y_0!6_2!3 - x_2!3 <= 0
 sum_1!19: y_0!1_2!4 - x_0!1 - x_2!4 >= -1
 idk_1!19!0: y_0!1_2!4 - x_0!1 <= 0
 idk_1!19!2: y_0!1_2!4 - x_2!4 <= 0
 sum_1!20: y_0!2_2!4 - x_0!2 - x_2!4 >= -1
 idk_1!20!0: y_0!2_2!4 - x_0!2 <= 0
 idk_1!20!2: y_0!2_2!4 - x_2!4 <= 0
 sum_1!21: y_0!3_2!4 - x_0!3 - x_2!4 >= -1
 idk_1!21!0: y_0!3_2!4 - x_0!3 <= 0
 idk_1!21!2: y_0!3_2!4 - x_2!4 <= 0
 sum_1!22: y_0!4_2!4 - x_0!4 - x_2!4 >= -1
 idk_1!22!0: y_0!4_2!4 - x_0!4 <= 0
 idk_1!22!2: y_0!4_2!4 - x_2!4 <= 0
 sum_1!23: y_0!5_2!4 - x_0!5 - x_2!4 >= -1
 idk_1!23!0: y_0!5_2!4 - x_0!5 <= 0
 idk_1!23!2: y_0!5_2!4 - x_2!4 <= 0
 sum_1!24: y_0!6_2!4 - x_0!6 - x_2!4 >= -1
 idk_1!24!0: y_0!6_2!4 - x_0!6 <= 0
 idk_1!24!2: y_0!6_2!4 - x_2!4 <= 0
 sum_1!25: y_0!1_2!5 - x_0!1 - x_2!5 >= -1
 idk_1!25!0: y_0!1_2!5 - x_0!1 <= 0
 idk_1!25!2: y_0!1_2!5 - x_2!5 <= 0
 sum_1!26: y_0!2_2!5 - x_0!2 - x_2!5 >= -1
 idk_1!26!0: y_0!2_2!5 - x_0!2 <= 0
 idk_1!26!2: y_0!2_2!5 - x_2!5 <= 0
 sum_1!27: y_0!3_2!5 - x_0!3 - x_2!5 >= -1
 idk_1!27!0: y_0!3_2!5 - x_0!3 <= 0
 idk_1!27!2: y_0!3_2!5 - x_2!5 <= 0
 sum_1!28: y_0!4_2!5 - x_0!4 - x_2!5 >= -1
 idk_1!28!0: y_0!4_2!5 - x_0!4 <= 0
 idk_1!28!2: y_0!4_2!5 - x_2!5 <= 0
 sum_1!29: y_0!5_2!5 - x_0!5 - x_2!5 >= -1
 idk_1!29!0: y_0!5_2!5 - x_0!5 <= 0
 idk_1!29!2: y_0!5_2!5 - x_2!5 <= 0
 sum_1!30: y_0!6_2!5 - x_0!6 - x_2!5 >= -1
 idk_1!30!0: y_0!6_2!5 - x_0!6 <= 0
 idk_1!30!2: y_0!6_2!5 - x_2!5 <= 0
 sum_1!31: y_0!1_2!6 - x_0!1 - x_2!6 >= -1
 idk_1!31!0: y_0!1_2!6 - x_0!1 <= 0
 idk_1!31!2: y_0!1_2!6 - x_2!6 <= 0
 sum_1!32: y_0!2_2!6 - x_0!2 - x_2!6 >= -1
 idk_1!32!0: y_0!2_2!6 - x_0!2 <= 0
 idk_1!32!2: y_0!2_2!6 - x_2!6 <= 0
 sum_1!33: y_0!3_2!6 - x_0!3 - x_2!6 >= -1
 idk_1!33!0: y_0!3_2!6 - x_0!3 <= 0
 idk_1!33!2: y_0!3_2!6 - x_2!6 <= 0
 sum_1!34: y_0!4_2!6 - x_0!4 - x_2!6 >= -1
 idk_1!34!0: y_0!4_2!6 - x_0!4 <= 0
 idk_1!34!2: y_0!4_2!6 - x_2!6 <= 0
 sum_1!35: y_0!5_2!6 - x_0!5 - x_2!6 >= -1
 idk_1!35!0: y_0!5_2!6 - x_0!5 <= 0
 idk_1!35!2: y_0!5_2!6 - x_2!6 <= 0
 sum_1!36: y_0!6_2!6 - x_0!6 - x_2!6 >= -1
 idk_1!36!0: y_0!6_2!6 - x_0!6 <= 0
 idk_1!36!2: y_0!6_2!6 - x_2!6 <= 0
 epc_2!1: +24.20458191495274 y_0!1_1!1 +71.78148501896601 y_0!2_1!1 +10.642578872840346 y_0!3_1!1 -1.181978253465303 y_0!4_1!1 +29.871504723008456 y_0!5_1!1 +62.22534634372602 y_0!6_1!1 +19.398390625482563 y_0!1_1!2 +66.90981942141329 y_0!2_1!2 -46.17333289541414 y_0!3_1!2 +3.8026407212640123 y_0!4_1!2 +67.76847280753452 y_0!5_1!2 +33.93437322174262 y_0!6_1!2 +95.94227525576105 y_0!1_1!3 -71.48771908350338 y_0!2_1!3 -0.350018014286519 y_0!3_1!3 -31.956290996534335 y_0!4_1!3 -53.484771511206766 y_0!5_1!3 +15.048391377247611 y_0!6_1!3 -37.3214372765567 y_0!1_1!4 +79.01710147898032 y_0!2_1!4 +55.655992845882025 y_0!3_1!4 -15.488778223142916 y_0!4_1!4 -56.77978590411384 y_0!5_1!4 -86.4597583688165 y_0!6_1!4 -40.22085957983346 y_0!1_1!5 +35.85975807003251 y_0!2_1!5 -53.00068785519654 y_0!3_1!5 +64.23434544673123 y_0!4_1!5 +79.42276517239773 y_0!5_1!5 +9.014994327940954 y_0!6_1!5 -2.499721571844944 y_0!1_1!6 +74.97292394466805 y_0!2_1!6 -1.868029950681688 y_0!3_1!6 -5.031906154809633 y_0!4_1!6 +4.163113980528536 y_0!5_1!6 +65.8444816611368 y_0!6_1!6 + lambda_2!1 - mu_2 = 0
 epc_2!2: +46.399300895627476 y_0!1_1!1 +12.442979338464184 y_0!2_1!1 -48.974054000959114 y_0!3_1!1 +10.689528688862211 y_0!4_1!1 +47.66284194148216 y_0!5_1!1 +39.60828524694202 y_0!6_1!1 -26.14962437257944 y_0!1_1!2 -21.539233157177335 y_0!2_1!2 +35.12058719413412 y_0!3_1!2 +27.028773234344044 y_0!4_1!2 -70.10155713895476 y_0!5_1!2 -3.274562784062269 y_0!6_1!2 -81.37265403909844 y_0!1_1!3 -75.50820559649122 y_0!2_1!3 +19.4125984122864 y_0!3_1!3 -88.55065766099636 y_0!4_1!3 +70.19846377069376 y_0!5_1!3 +29.53954963785324 y_0!6_1!3 +91.48313709221648 y_0!1_1!4 -98.22782925567022 y_0!2_1!4 +4.6522225788816485 y_0!3_1!4 -90.51669875739819 y_0!4_1!4 +59.37011940493056 y_0!5_1!4 -38.195776147512106 y_0!6_1!4 -41.31916767396293 y_0!1_1!5 -38.62905083695522 y_0!2_1!5 -38.520191493818665 y_0!3_1!5 +83.5448399668125 y_0!4_1!5 +17.147533684346584 y_0!5_1!5 -44.17525509389157 y_0!6_1!5 +34.078345311595314 y_0!1_1!6 +65.84315990446436 y_0!2_1!6 +99.6652680662624 y_0!3_1!6 +60.861188130557935 y_0!4_1!6 -89.5417418509489 y_0!5_1!6 +33.89228208808703 y_0!6_1!6 + lambda_2!2 - mu_2 = 0
 epc_2!3: +3.5201469300933326 y_0!1_1!1 +60.7504568897306 y_0!2_1!1 -71.34381328604485 y_0!3_1!1 +82.06797202188045 y_0!4_1!1 +0.7607707525568088 y_0!5_1!1 -27.33185980514925 y_0!6_1!1 -84.04699354602529 y_0!1_1!2 -50.00638958607222 y_0!2_1!2 +7.782216361609386 y_0!3_1!2 +20.33714176326629 y_0!4_1!2 -76.72957449431101 y_0!5_1!2 -92.46675331475123 y_0!6_1!2 +84.99142334924079 y_0!1_1!3 -50.94680669432141 y_0!2_1!3 +6.210790926148448 y_0!3_1!3 +58.984958983403175 y_0!4_1!3 -17.851585654044015 y_0!5_1!3 -39.56749322423367 y_0!6_1!3 +91.86982660974908 y_0!1_1!4 +80.0670739840771 y_0!2_1!4 +21.73566746656755 y_0!3_1!4 -92.08443701882551 y_0!4_1!4 +31.68469120520828 y_0!5_1!4 -26.639886906454265 y_0!6_1!4 +8.215724207454514 y_0!1_1!5 +25.50623510649619 y_0!2_1!5 -79.53732234548178 y_0!3_1!5 -31.312453446432656 y_0!4_1!5 +65.29500388742719 y_0!5_1!5 -37.57914015599768 y_0!6_1!5 +60.368558105144274 y_0!1_1!6 +4.488881223678092 y_0!2_1!6 -63.680524428012816 y_0!3_1!6 +65.26706979326445 y_0!4_1!6 -33.968454659767744 y_0!5_1!6 -95.44114171895848 y_0!6_1!6 + lambda_2!3 - mu_2 = 0
 epc_2!4: -65.31417411572953 y_0!1_1!1 +87.06763263107356 y_0!2_1!1 -56.9344866160981 y_0!3_1!1 +11.596817252382706 y_0!4_1!1 +1.6593945737478464 y_0!5_1!1 +8.88975823334421 y_0!6_1!1 +27.178996248852826 y_0!1_1!2 +54.83067612260504 y_0!2_1!2 +18.24812954040975 y_0!3_1!2 +35.03566823702175 y_0!4_1!2 +44.684323502680115 y_0!5_1!2 +13.550185727225042 y_0!6_1!2 +25.78945374426509 y_0!1_1!3 +66.69562875889733 y_0!2_1!3 +47.598006753774314 y_0!3_1!3 +91.7045634237447 y_0!4_1!3 -63.33508541974404 y_0!5_1!3 +71.65976553157654 y_0!6_1!3 -12.342685710689082 y_0!1_1!4 +40.78978951103116 y_0!2_1!4 +62.06519687998619 y_0!3_1!4 -50.86947913007875 y_0!4_1!4 +23.460850015684656 y_0!5_1!4 -40.92877803831285 y_0!6_1!4 -52.014085875595015 y_0!1_1!5 -61.12725188024537 y_0!2_1!5 -96.42635980345715 y_0!3_1!5 -45.24245488575178 y_0!4_1!5 -6.3576151969945585 y_0!5_1!5 -57.116181725112945 y_0!6_1!5 +35.82018025061612 y_0!1_1!6 +89.0622670282217 y_0!2_1!6 -71.75047501133942 y_0!3_1!6 -84.53852996208747 y_0!4_1!6 -60.878378736786786 y_0!5_1!6 +12.159414606376572 y_0!6_1!6 + lambda_2!4 - mu_2 = 0
 epc_2!5: +42.620606018785935 y_0!1_1!1 -66.00765344477675 y_0!2_1!1 -20.883929035932837 y_0!3_1!1 +70.86029830046567 y_0!4_1!1 -88.70337686349257 y_0!5_1!1 +87.97956316330027 y_0!6_1!1 +12.433930176692783 y_0!1_1!2 +1.408554084027756 y_0!2_1!2 -1.074285423263504 y_0!3_1!2 -82.22708708397965 y_0!4_1!2 +6.88276757036634 y_0!5_1!2 +24.111047873500695 y_0!6_1!2 +21.369979441928493 y_0!1_1!3 -2.8393390413475714 y_0!2_1!3 +65.92934403470392 y_0!3_1!3 +28.592387426376746 y_0!4_1!3 +27.524728706679497 y_0!5_1!3 -14.572832117275695 y_0!6_1!3 -34.251114240814445 y_0!1_1!4 -20.718689912170092 y_0!2_1!4 +82.09313769589846 y_0!3_1!4 +74.67587862189379 y_0!4_1!4 -88.25516424568475 y_0!5_1!4 +80.30732375453204 y_0!6_1!4 -37.43295193327674 y_0!1_1!5 +27.162606639328928 y_0!2_1!5 -61.17516460011656 y_0!3_1!5 +17.306421114539532 y_0!4_1!5 +35.42238805706131 y_0!5_1!5 -64.92075001017511 y_0!6_1!5 +15.851745058187959 y_0!1_1!6 -59.29505495523515 y_0!2_1!6 +47.04566638894201 y_0!3_1!6 +41.67343904166728 y_0!4_1!6 +69.571178993844 y_0!5_1!6 -29.128960875285784 y_0!6_1!6 + lambda_2!5 - mu_2 = 0
 epc_2!6: -45.834357254372925 y_0!1_1!1 +37.78495341992948 y_0!2_1!1 +16.949802495760636 y_0!3_1!1 +90.09333313828918 y_0!4_1!1 -73.42784459800984 y_0!5_1!1 -8.174968737628902 y_0!6_1!1 +87.24171787653628 y_0!1_1!2 -60.33300848412655 y_0!2_1!2 +81.66196788040125 y_0!3_1!2 +83.91996292417579 y_0!4_1!2 +26.232676393990033 y_0!5_1!2 +62.43734918648923 y_0!6_1!2 -44.140842088184094 y_0!1_1!3 -3.614231199495947 y_0!2_1!3 +4.995028590505797 y_0!3_1!3 -78.02810021115658 y_0!4_1!3 -17.78447985654614 y_0!5_1!3 -37.104002987911386 y_0!6_1!3 +4.11893391450829 y_0!1_1!4 -10.898448834437218 y_0!2_1!4 -73.49580278796188 y_0!3_1!4 +97.64999761883752 y_0!4_1!4 -88.23180356257649 y_0!5_1!4 -85.10761717949755 y_0!6_1!4 -64.12240700149086 y_0!1_1!5 -86.45558805222262 y_0!2_1!5 -39.957992864340454 y_0!3_1!5 -93.82039428715518 y_0!4_1!5 -25.33156807332439 y_0!5_1!5 +94.79581714585336 y_0!6_1!5 +29.006505883305636 y_0!1_1!6 +85.61552081360765 y_0!2_1!6 -38.829411797211286 y_0!3_1!6 +14.657865684597368 y_0!4_1!6 -28.606937213142743 y_0!5_1!6 +52.7537830612323 y_0!6_1!6 + lambda_2!6 - mu_2 = 0
 dc_2: x_2!1 + x_2!2 + x_2!3 + x_2!4 + x_2!5 + x_2!6 = 1
 bc_2!1: lambda_2!1 +299.8352181602369 x_2!1 <= 299.8352181602369
 bc_2!2: lambda_2!2 +299.8352181602369 x_2!2 <= 299.8352181602369
 bc_2!3: lambda_2!3 +299.8352181602369 x_2!3 <= 299.8352181602369
 bc_2!4: lambda_2!4 +299.8352181602369 x_2!4 <= 299.8352181602369
 bc_2!5: lambda_2!5 +299.8352181602369 x_2!5 <= 299.8352181602369
 bc_2!6: lambda_2!6 +299.8352181602369 x_2!6 <= 299.8352181602369
 sum_2!1: y_0!1_1!1 - x_0!1 - x_1!1 >= -1
 idk_2!1!0: y_0!1_1!1 - x_0!1 <= 0
 idk_2!1!1: y_0!1_1!1 - x_1!1 <= 0
 sum_2!2: y_0!2_1!1 - x_0!2 - x_1!1 >= -1
 idk_2!2!0: y_0!2_1!1 - x_0!2 <= 0
 idk_2!2!1: y_0!2_1!1 - x_1!1 <= 0
 sum_2!3: y_0!3_1!1 - x_0!3 - x_1!1 >= -1
 idk_2!3!0: y_0!3_1!1 - x_0!3 <= 0
 idk_2!3!1: y_0!3_1!1 - x_1!1 <= 0
 sum_2!4: y_0!4_1!1 - x_0!4 - x_1!1 >= -1
 idk_2!4!0: y_0!4_1!1 - x_0!4 <= 0
 idk_2!4!1: y_0!4_1!1 - x_1!1 <= 0
 sum_2!5: y_0!5_1!1 - x_0!5 - x_1!1 >= -1
 idk_2!5!0: y_0!5_1!1 - x_0!5 <= 0
 idk_2!5!1: y_0!5_1!1 - x_1!1 <= 0
 sum_2!6: y_0!6_1!1 - x_0!6 - x_1!1 >= -1
 idk_2!6!0: y_0!6_1!1 - x_0!6 <= 0
 idk_2!6!1: y_0!6_1!1 - x_1!1 <= 0
 sum_2!7: y_0!1_1!2 - x_0!1 - x_1!2 >= -1
 idk_2!7!0: y_0!1_1!2 - x_0!1 <= 0
 idk_2!7!1: y_0!1_1!2 - x_1!2 <= 0
 sum_2!8: y_0!2_1!2 - x_0!2 - x_1!2 >= -1
 idk_2!8!0: y_0!2_1!2 - x_0!2 <= 0
 idk_2!8!1: y_0!2_1!2 - x_1!2 <= 0
 sum_2!9: y_0!3_1!2 - x_0!3 - x_1!2 >= -1
 idk_2!9!0: y_0!3_1!2 - x_0!3 <= 0
 idk_2!9!1: y_0!3_1!2 - x_1!2 <= 0
 sum_2!10: y_0!4_1!2 - x_0!4 - x_1!2 >= -1
 idk_2!10!0: y_0!4_1!2 - x_0!4 <= 0
 idk_2!10!1: y_0!4_1!2 - x_1!2 <= 0
 sum_2!11: y_0!5_1!2 - x_0!5 - x_1!2 >= -1
 idk_2!11!0: y_0!5_1!2 - x_0!5 <= 0
 idk_2!11!1: y_0!5_1!2 - x_1!2 <= 0
 sum_2!12: y_0!6_1!2 - x_0!6 - x_1!2 >= -1
 idk_2!12!0: y_0!6_1!2 - x_0!6 <= 0
 idk_2!12!1: y_0!6_1!2 - x_1!2 <= 0
 sum_2!13: y_0!1_1!3 - x_0!1 - x_1!3 >= -1
 idk_2!13!0: y_0!1_1!3 - x_0!1 <= 0
 idk_2!13!1: y_0!1_1!3 - x_1!3 <= 0
 sum_2!14: y_0!2_1!3 - x_0!2 - x_1!3 >= -1
 idk_2!14!0: y_0!2_1!3 - x_0!2 <= 0
 idk_2!14!1: y_0!2_1!3 - x_1!3 <= 0
 sum_2!15: y_0!3_1!3 - x_0!3 - x_1!3 >= -1
 idk_2!15!0: y_0!3_1!3 - x_0!3 <= 0
 idk_2!15!1: y_0!3_1!3 - x_1!3 <= 0
 sum_2!16: y_0!4_1!3 - x_0!4 - x_1!3 >= -1
 idk_2!16!0: y_0!4_1!3 - x_0!4 <= 0
 idk_2!16!1: y_0!4_1!3 - x_1!3 <= 0
 sum_2!17: y_0!5_1!3 - x_0!5 - x_1!3 >= -1
 idk_2!17!0: y_0!5_1!3 - x_0!5 <= 0
 idk_2!17!1: y_0!5_1!3 - x_1!3 <= 0
 sum_2!18: y_0!6_1!3 - x_0!6 - x_1!3 >= -1
 idk_2!18!0: y_0!6_1!3 - x_0!6 <= 0
 idk_2!18!1: y_0!6_1!3 - x_1!3 <= 0
 sum_2!19: y_0!1_1!4 - x_0!1 - x_1!4 >= -1
 idk_2!19!0: y_0!1_1!4 - x_0!1 <= 0
 idk_2!19!1: y_0!1_1!4 - x_1!4 <= 0
 sum_2!20: y_0!2_1!4 - x_0!2 - x_1!4 >= -1
 idk_2!20!0: y_0!2_1!4 - x_0!2 <= 0
 idk_2!20!1: y_0!2_1!4 - x_1!4 <= 0
 sum_2!21: y_0!3_1!4 - x_0!3 - x_1!4 >= -1
 idk_2!21!0: y_0!3_1!4 - x_0!3 <= 0
 idk_2!21!1: y_0!3_1!4 - x_1!4 <= 0
 sum_2!22: y_0!4_1!4 - x_0!4 - x_1!4 >= -1
 idk_2!22!0: y_0!4_1!4 - x_0!4 <= 0
 idk_2!22!1: y_0!4_1!4 - x_1!4 <= 0
 sum_2!23: y_0!5_1!4 - x_0!5 - x_1!4 >= -1
 idk_2!23!0: y_0!5_1!4 - x_0!5 <= 0
 idk_2!23!1: y_0!5_1!4 - x_1!4 <= 0
 sum_2!24: y_0!6_1!4 - x_0!6 - x_1!4 >= -1
 idk_2!24!0: y_0!6_1!4 - x_0!6 <= 0
 idk_2!24!1: y_0!6_1!4 - x_1!4 <= 0
 sum_2!25: y_0!1_1!5 - x_0!1 - x_1!5 >= -1
 idk_2!25!0: y_0!1_1!5 - x_0!1 <= 0
 idk_2!25!1: y_0!1_1!5 - x_1!5 <= 0
 sum_2!26: y_0!2_1!5 - x_0!2 - x_1!5 >= -1
 idk_2!26!0: y_0!2_1!5 - x_0!2 <= 0
 idk_2!26!1: y_0!2_1!5 - x_1!5 <= 0
 sum_2!27: y_0!3_1!5 - x_0!3 - x_1!5 >= -1
 idk_2!27!0: y_0!3_1!5 - x_0!3 <= 0
 idk_2!27!1: y_0!3_1!5 - x_1!5 <= 0
 sum_2!28: y_0!4_1!5 - x_0!4 - x_1!5 >= -1
 idk_2!28!0: y_0!4_1!5 - x_0!4 <= 0
 idk_2!28!1: y_0!4_1!5 - x_1!5 <= 0
 sum_2!29: y_0!5_1!5 - x_0!5 - x_1!5 >= -1
 idk_2!29!0: y_0!5_1!5 - x_0!5 <= 0
 idk_2!29!1: y_0!5_1!5 - x_1!5 <= 0
 sum_2!30: y_0!6_1!5 - x_0!6 - x_1!5 >= -1
 idk_2!30!0: y_0!6_1!5 - x_0!6 <= 0
 idk_2!30!1: y_0!6_1!5 - x_1!5 <= 0
 sum_2!31: y_0!1_1!6 - x_0!1 - x_1!6 >= -1
 idk_2!31!0: y_0!1_1!6 - x_0!1 <= 0
 idk_2!31!1: y_0!1_1!6 - x_1!6 <= 0
 sum_2!32: y_0!2_1!6 - x_0!2 - x_1!6 >= -1
 idk_2!32!0: y_0!2_1!6 - x_0!2 <= 0
 idk_2!32!1: y_0!2_1!6 - x_1!6 <= 0
 sum_2!33: y_0!3_1!6 - x_0!3 - x_1!6 >= -1
 idk_2!33!0: y_0!3_1!6 - x_0!3 <= 0
 idk_2!33!1: y_0!3_1!6 - x_1!6 <= 0
 sum_2!34: y_0!4_1!6 - x_0!4 - x_1!6 >= -1
 idk_2!34!0: y_0!4_1!6 - x_0!4 <= 0
 idk_2!34!1: y_0!4_1!6 - x_1!6 <= 0
 sum_2!35: y_0!5_1!6 - x_0!5 - x_1!6 >= -1
 idk_2!35!0: y_0!5_1!6 - x_0!5 <= 0
 idk_2!35!1: y_0!5_1!6 - x_1!6 <= 0
 sum_2!36: y_0!6_1!6 - x_0!6 - x_1!6 >= -1
 idk_2!36!0: y_0!6_1!6 - x_0!6 <= 0
 idk_2!36!1: y_0!6_1!6 - x_1!6 <= 0
Bounds
 mu_0 free
 mu_1 free
 mu_2 free
Binary
 x_0!1 x_0!2 x_0!3 x_0!4 x_0!5 x_0!6 x_1!1 x_1!2 x_1!3 x_1!4 x_1!5 x_1!6 x_2!1 x_2!2 x_2!3 x_2!4 x_2!5 x_2!6
End
